NAME : XML100_1166_14
DIMENSION : 101
NB_CLUSTERS : 4
CLUSTERING_ALG : KMeans
CLUSTERING_PARAMS : k(3)
CLUSTERS
1 0
2 1 4 9 12 15 17 29 37 38 46 50 51 52 54 55 57 62 63 65 67 74 79 80 84 85 86 90 94
3 2 3 6 11 19 21 22 25 26 27 28 30 34 41 44 47 48 49 53 56 59 60 68 71 75 76 88 92 95 97 98 99
4 5 7 8 10 13 14 16 18 20 23 24 31 32 33 35 36 39 40 42 43 45 58 61 64 66 69 70 72 73 77 78 81 82 83 87 89 91 93 96 100
EOF